Si Al O  H 
 1.0000000000000000
    31.2945808712390701    0.0000000000000000    0.0000000000000000
    15.6472904356203539   27.1019020352874591    0.0000000000000000
     0.0000000000000000    0.0000000000000000   15.6472904356195350
 Si  Al  O   H  
 200  34 474  45
Cartesian
 32.9452275669694359  4.1319579360699858  0.7705232259106694
 20.7916610690454569 23.1683297564630308  6.3844387114003824
 32.9198934129090688 26.7782040727845505  2.5587769455775273
 37.0780859254226911 11.7151682620465873  9.7119984733834421
 35.3942457965990158 10.2197835014384175  7.6044081986960972
 32.6270153802520539 21.3263672985089769  0.5003315127557627
  7.6903129450934546  9.2273659436073778 13.6556683351745942
  4.2477659203654143  7.1227179700563310 12.7542688596970049
  6.8071070185599609  6.9581305266574756 11.6617059818155298
  5.8214519241514129  7.6980910709598369 15.4825133555682513
 34.3318472959748817 21.4095746118521824  3.0518763893242391
 22.1876310449029788 25.6247271108709747  8.0031168080289596
 32.4879664565171424 11.3654817851508820  8.3636774677035302
 30.7273300479769489 24.8598750386399097  2.0329424622073264
 32.2185051882873381  7.4125978348556520 10.4084257303041952
 36.0380677847921191 24.8064514580343669  0.3702305428968718
 18.4027139782908300 22.3178571403574928  9.4430496229159999
 11.5252213262672942 13.0950348887574322 13.4872840587198688
  9.2304757398486288 12.6041066544113320 15.5753953319524232
 30.2784011011673329  9.3779542204015645  9.5231156909580701
 10.5604505485142184  8.3837301614674065 12.8313198475710752
 16.4904102811494688 26.6650100945756883  6.6342501670795215
 16.5811378556171007 20.9193353087619087  7.4685288507118237
 36.5987950622404767 13.1846023527588390  2.8451661757522415
 34.9343747962681732 24.4277703196917031  3.3125012057145953
 13.2009491474542369 12.6013477599613086  8.9023703016673785
 31.9842819050734555 21.1233576081448149  7.9236619421894998
 31.0820454015734313 18.0785122968281371  5.2650957928908309
 13.5145108579816338  4.4109733832821520  2.2284197651940514
 33.3450659949154726 16.4423271462066829  0.9736178087366080
 35.1080822716852836 13.9865206179003057  0.2430869366161241
 33.1463389312061807  4.0173274000066561  3.9187708784243966
  7.7450712826034929  8.8158410395769380  6.0823636147477167
 19.5641186464639745 21.9795613564136012 13.9266102415522113
 29.4278143491257111 19.5626444335546950  9.0453735798152337
 38.1915905457575349 12.2558738532040294 13.8753251969335345
 35.4652167244528300 11.4028236200798538 14.6786491601143840
 35.4783244607831705 10.0797670523753489 11.7115921472036408
 28.5655245352797031 19.8844756096627009  6.2789498879431873
 32.9520874689686991  6.8217305127926045  5.4086127930002492
  9.6078581254814779 11.2787939079860315  6.4564715894649307
  8.9148044059328750 11.2378519985848726  9.4716339640242353
 31.4970175848223732 17.5990923045463177  9.8350167822962717
 10.0049827096105073  8.4298963006358161  9.7524362632963619
 33.2184061240030744 11.9036781787113455 11.2358931888110671
 31.3046929287743616  9.7680283744997460 12.1740585684408167
 15.7406837177293220 24.8613918605382729 13.6175854448653375
 16.6060175406932977 21.7811088020627146 13.9874814510274881
 33.0274726935691945 18.6046165913393686 14.6980486067254539
 32.4744798407647437 19.6277882711622915 11.9207493599527261
 32.0889024047419795 26.5034898506065169  9.6976026492189327
 33.0726489386342095 20.4687040317397155  5.5077728941064112
 24.6910261906978903  2.7439669807882261 14.8763228617373766
 29.5304737246625137  0.4424925141124417 10.0993102947925593
  9.9134123400628926 15.3230804006128754  8.2098486411034504
 24.8600812084063776  0.5775574059565037 13.0952248336196480
 15.6471034987230837 23.7167204970318544  3.5141318246370616
 35.2850788083908498 21.1406150453494952 12.3115196610530280
 13.8792919898487241 16.5910462119225954  9.6239483252720284
 13.6069314783675903 14.1509210002164476  6.4608472882130341
 15.5609216970294657 14.1306562488361216  8.6038489605152861
 17.5172342355725981 20.3088227945524373 11.4390415709812086
 30.4517349159129367  4.0449917214425382  8.1328183955483020
 30.1295614742729150  6.6403519520872738  6.3399519705674834
 28.3217058171044300  1.9412750577976570  7.6791485218445992
 33.7972948683687235 24.7570507097591168 11.6034701015104087
 26.6274524305835243  5.2654912699464953  1.9666454406966745
 27.3287089850598477  0.4883254156925285  4.9524602231084378
 14.2341656643460883 20.3126013447149028 13.5964954627206271
 26.6129389483180958  3.7054641914294311  9.4490530764417944
 29.8712556491034142  3.7554612181371438  1.0631113223132140
 28.0309877399911187  2.7963523205477108  3.0205477099189726
 27.9960291271497574  5.2926453388801331  4.6178010691906923
 14.8346139286827086 19.2472758013427132 10.9027063959100641
 11.6483898044108045 15.8564349024541364 14.4421239504833672
 31.8496680396502363  1.2080473634499498  4.0887041239678492
 33.9824334792598961 23.2366784691946258 14.1669640094935367
 18.4609927162037692 26.7234432723879749  2.9922145544104093
 10.8248466349153514 13.2471060694143006 10.5963678722901697
 19.7098205334300829 25.0306193987278718  0.6985563191932046
 12.8666160869954016 10.4693122636523093 12.3479708527036003
 15.5542547961358402 23.0073784721250547  9.2799317935025716
 18.0828980064717761 24.5270614167306569  5.2141014006927193
 34.9953066108954900 11.4457548893949106  4.9132872450312766
 34.5306948712561521  8.8895684635394723  0.5978032135062971
 34.2698756590743301  9.1018416426878694  3.5274306764262051
 35.3746312589407310 22.9070069624393824  9.7641593164488256
 32.2474224567228802  1.8209445451024326 11.0887426654939745
 37.0339606608817249 23.8354563070763810  5.4358115538809466
 35.7194636963480363 21.3863253218807436  6.9896025481263457
 33.1578118690028134  6.6727803206234482 14.4720074691648684
 27.6383135623114065  6.4279337023930800 14.7985083437351115
 11.8036981844773354 19.7968796792615969  2.1316257193882153
 14.3639961361000967 18.5646341489383211  3.2050028729746458
 12.5268983918734023 16.6531597405850000  4.8335798311330018
 30.4635178049161297 25.5227114278632499 14.6087293622010197
 29.6289134561940806 23.9481838281524304 11.9069880648643007
 29.6152322162052002 20.8821404838442497 11.8067001872282873
 27.6683337107785050  3.6482324053715933 14.3525223878158847
 27.4024973765128834  2.0518692323984054 11.8561901889987382
 30.9907763628581705  4.6084779706222836 11.1925551594550754
 30.1561144722868626  6.4640981464438667 13.3470970290446136
 11.8544426212105005  2.5250204534455150  3.9855907668681092
 11.4374205766696093 16.9005582085882047 11.4181475343960805
 17.3149875069027352  5.4591195040519480  1.2495141393073288
 22.9243531409352350 25.0254724990499433 12.1068881025455877
 38.4517751585312766 25.6405945503895438  7.6569032928209264
 23.0255662990314072 21.3985367474793051 12.0786725868815044
 13.1292713226723272  7.9893884705603613  6.0528551272394298
 43.1835435745674019 23.3511236885762266  0.0795012088965095
 26.3745058413940114 25.0413620156962828 13.7051012003004153
  5.5739673194633514  5.2608716133171178  6.9420792117278438
 23.6108098969782993 23.4131625884401373 14.2809751917131535
 27.0713534452100717 25.5302010906681502 10.7513429984320936
 12.6416975721390088  7.3719738808510638  1.4428990792696132
 17.3552864679229373  3.3482041211048750 14.5379443437871920
 14.5879132002221965  1.7075812184308907 10.6991896560963937
 39.5117777284701148 21.3706820755300768  1.2426500080237888
 39.3334217324352409 24.4242359379940552  3.6324301818912912
 16.8972154360454709  1.6000279132244879  4.9371382100152177
  8.1357362371854176  3.6985253366552708  7.6873264248133628
 10.2253322183474964  5.8409807803833349  8.1459193607684544
  8.0167035698738367  1.6746856327538686 10.0412625022735753
 38.9197545531138118 24.2401559078884716  0.5951436771404081
 13.2757174143506980  4.5586645250848408 14.9413021650726527
 12.2306696574173515  0.0480533780206862 15.2639732539436093
 21.1348901689286599  4.0305543503959154  2.9912284689009696
 40.0028884060234020 19.2440586424702005 14.5326311316685644
 37.2928623788172189 15.4666529683504894  4.9407228753317849
 37.8340667166014057 24.7227018659841136 10.2637058175499956
 28.3106379465637126 23.0068790586035519  6.5962247587127134
  3.4195405292813605  1.0500338058951073 12.5591784915799707
 39.9049550692549033 26.8305244310939344  5.4748532033449759
 23.9993628666199008 27.0462119226105031  1.2128070601613383
  5.2788833764951697  1.0314840317709861  4.1080217729890309
  6.3481522058660254  4.6483338568876684  0.0947363398990327
  7.3319850305938896  2.6357340721830584  2.3537963168224345
 26.9133867206298554 26.9796130997090771  2.4307955607297669
 21.5533095132406309 22.7506931305589362  0.6643740280230589
 23.2366776320355832 22.8744195969459696  4.7092392577594238
 23.2092039659813594 26.0370771509341523  3.9704743396496101
 40.8702869348263320 24.8973265430465425 14.2778677518712556
 39.3937081431368412 22.9046771729612146 12.3136627669394620
 28.5060978676351411 25.2100967934834088  4.2388085160345526
 15.8381110983757551 10.2794826487274040 12.4477419663538793
 24.4569050810485855 24.1646590998529760  9.7031441177688720
 25.1768662332805029 23.2573040983539912  7.0550428208101472
  9.0961138690993941  3.4596773728329797  4.7988965459164143
  9.5842272806015352  6.3554852075240875  5.1071763697821408
 24.6201074028063189 26.3824899896985521  6.4679761189164395
 15.0140868585743092  6.9505417460018721 15.5371304155604157
 16.1262638601506723  8.6624805411963965  9.9285753801224583
  1.5728515584292242  1.9610470433845888  8.1969478151266895
  3.8286205473182018  2.8019014838563736  6.0909136030567117
 42.9513540464542984 23.4312515732508473  7.9670611464523944
 42.7737584177234353 21.5123834813753909  5.6742914426206781
 21.1270252247904793  5.3737611120708531  0.2727550316099871
 38.0457522854200860 20.2443498199601315 12.5175372565407699
 10.8662276554123576  6.2547823080564147 14.8624220401294345
 33.5219150033729179 14.0704136200209717  5.3132323111392887
 13.9272332109499040  0.8305757226344533  5.6289397642361871
 20.2206834310708814  0.3257953382718834 14.6733051156284784
 12.9726038251971882  2.3660329510690876  8.0883096808962858
  7.7092105362714625 11.3791971341064020  2.0423829248318532
 37.8342034978865982 19.0335752203514623  7.2843818461105849
  9.5135809300291925  2.5711709704594941 12.5131829164338075
 36.0090195779505180 16.5294714596075352  7.4287367706440417
 35.5848672177422571 14.6175836772982670  9.9576072782336968
 22.9156921830706750  2.5995147599544848 12.4306880795239074
  9.8738539999913222 13.1140763247333823  2.8501444040019397
  6.2226643682479112  8.9749881624118153  3.4655015471300428
 13.1071047623190111  5.4153925914282688  7.6513182856598991
 17.2969835314049512  0.3441779228189354 15.1597303458802273
 40.3639715099190113 16.3660886102829082  0.2746283872152384
 23.4141703418260363  3.8277230083709775  9.4996520964519959
 10.6535049790991785  0.6108860293898850  8.7726766824975879
 32.3012951155847219 14.7816659987493306 10.0557583737266896
 25.4897329973808944  4.5715130010083609  5.8343065678553359
 20.3104115321623588  3.0912839690464149 14.0044131711512581
 11.0852231546639484  8.3243262633564719  3.7998807948947420
  7.8681720183541533  0.2628004457296751 13.8360704770650500
  8.4698790964416357  5.1407459949961165 13.6790374664771619
 38.6345261197425032 18.2610816373506175  4.4255744851894878
  3.9587454336782217  2.8468939819179404 14.9405772274065107
 35.6401091057406703 18.1777034113876468  0.3797963783669730
  5.0127560988026065  0.2370696223045377 14.7860908730420739
 23.6587130976995397  4.5887563727927621  1.3955018364645158
 16.9605618233241451  3.7430511245652029 10.4068036808718993
 15.9517302960690142  5.9767173845533570  8.6656159534175767
 37.5080089459042938 15.8427630608238026 15.0355634045412287
 37.6343131616767934 14.7962693364637978 12.1688955532632406
 17.1886472583782677  6.7598907158776775  5.7887092523228620
 19.2909605484625075  2.1905825895245119  6.6855222793608524
 18.7882153021831328  1.3969180522914644  9.7331037118964581
 22.7432616792823055  5.2459147420144152  5.8621832050931868
 37.0653306670237370 20.1713068321412052  2.4073442655680366
 16.2733341240745624  4.4706668350473127  3.8608823115697350
 39.7032033591710771 16.2293963281787690 10.3967239854081246
 42.4442244452883770 19.6785019655604145 10.1522168187400315
 39.2671220967037442 19.1610925753666734  9.9856558389625700
 36.2718985937938427 26.7017555690161217 11.7483250204737804
 23.9000851524057332  2.4931243260285187  6.7216810547521844
 21.8964366142197555  2.0394775344755258  4.8172499017140584
 13.1477226999400596 21.9057113538957076 11.1231923795116678
 31.8935457294797438 15.8335393808905298  7.2384014548060192
 33.3956175840926690 18.5311666458578550  7.6260544459268358
 18.7937394158028006 24.9321722287872127 13.4202904489843142
 14.4610991032812368 21.2306479620882946  5.1472432269340445
 15.1418684770195693 23.9953455573391281  0.3322994326358655
 32.1488514130284173 22.5306988209140506 10.6644836944904284
 21.0720115904011003 26.8313790801448313 10.4132043440131401
 21.4958442638209135  1.4809664815179566  7.9596378493168096
 12.5060574722791475  2.0565203812104889 13.0600415678691597
 19.9268730271330270  5.1398919795742826  5.8686119719729195
 13.2933612490966144 20.7922398696920894  8.3009341568592134
 30.6484659875137879 23.9602131244274190  8.7757447689110286
 20.5827650446843151 23.4926488452638367 11.2162253614830156
 44.9055926124358109 24.5536132044926383 11.2040958611713304
 12.2281271532165992 11.9947425923231563  4.6110181061680091
 41.7857025327338505 22.5242850493975162  2.9069705679120461
 13.4298340179121727 18.1433009135056906  0.1298466009774843
  8.7258177258707672 13.9944542997453247  5.5570204168020370
 13.0299688969552960  9.5656254665940192  9.0389972271169778
  9.6610577025261293 16.2242474573616597  3.4847702961444851
 45.3082875085925849 25.3626607345336055  8.0400957409758007
 11.9504588509316481 17.8925830380642736  7.6539095531864874
 41.7814087353716133 18.7883160456725484  4.9357245868453008
 34.5880338907963818  7.1677515972634662  8.1668935323391576
 45.5148432306548898 26.3262174209538280  4.8034515073657635
  5.9664892774204628  7.7065461112506668  8.6231098912880384
 32.5810235987104164 14.4721910679583630  2.9652048726276261
 42.0212850038161179 22.8749280920557787 10.5783303144642300
 42.6972006784458031 20.2428898528188590 14.8418971756589446
  6.9522286725193894  6.2581237296298866  4.3902930732250987
  3.8745334333671360  2.4435671005578548 13.3381280870938568
 14.3438331163668753  5.7931836535124246  8.6274890361706387
  8.4833627299202217  2.6833879342351126 11.2389522476656047
  9.5553055989301043  4.0710172803235309 13.1487193484656117
 16.5759009434131279  4.5059034642634179  9.0256285313682820
  6.2704831323191188  0.6226591798121875 13.8400305733394688
 13.1735553728086696  6.3204656414049616  6.2825096303322150
 18.7459433469868166  6.3939011121598588  5.7942521842796095
 16.5279667605513367  6.5291637201963573  7.2769301282593251
 13.1003051069300884  3.8028563806266154  7.3017699216281713
 13.5506092149391328  1.1199095995052843  7.1912488620237847
  4.8529066911235113  4.1559023001417073 15.3000216494519297
  7.2678987507341466  4.3418847587144000 14.4303807440399794
 13.7640967753496284  2.4518527857198000  9.4969282290403108
 15.1529841483826839  0.2719637917766007 10.1693708976996078
  4.2049119324238404  0.6268150592765633 11.2532251007730224
  6.8197691876110929  0.7481790812216134 10.4937906515132404
  5.3503092253893270  6.2080223037705817 11.9805573137376555
  6.8137585320342744  9.4645838145128796  4.9240762500537487
 15.5425832745176393  0.8966652198653109  5.4821737119921634
 15.7790125404859847  5.9864124507989445  0.9750995938689428
 13.0404078588319603  5.9588755096501860  2.1327279905422243
 13.1673498201846879  2.0173381907831636  4.7954885435989132
 16.6564213551705258  3.1887145125819716  4.7731527713258854
 10.4446851369635318  6.7768772885883344  3.8288569352804265
 11.3395373992501796  7.1896993421204076  0.4683235384077841
 17.3482134494273375  4.6121810078826817  2.6484789439738914
  8.5002919231850473 11.2649495317709576  0.5937896271251006
  8.9320676575890712 11.7554123661154097  3.0996780033746383
  9.8382112009831015  9.3008922783748336  3.4927357573293683
 17.7605843255365698  4.3882178542611756  0.0893726054859411
 16.3039705040640257  5.7806318098670051  4.7992364390557576
  7.9522838483346474  6.0129957180208820 12.3965692921081434
 11.3628565215659805 12.8001929216941956  3.3030143148164761
 11.4060213949502156  2.0210314967086158  8.4348214904866765
  9.6813080840188306 13.5028901460239741  1.2414833367191591
  6.6279823311272219  7.4392170776766324  3.1535851851440264
  6.9082283307132926 10.0031852302064621  2.3612772504217525
  9.3294852404051678  0.7576435896288376  9.6915955132341001
 10.1264959239564423  0.1138545396415391  7.2773921793398104
 11.7800315620842220  5.6889488091895224  8.5720720567392039
  8.8222226020900401  1.5425360584048671 13.6110483574786478
  9.2442312543309537  6.0139176445791653 14.8501515204217114
  2.4917525212778826  3.0247519772722824 15.5793054429776596
 23.0439363690485415 23.2526432148841273  0.1604413488272211
 11.0199877976805514  2.1731826965612253 12.1457736196638102
 16.0411279342546855  7.7006804270558797 14.5509596090760880
 13.2391563735626203  8.7242055399976710  7.4318417239234931
  8.6255444748604155  5.0724212991027997  4.6291538499180076
 17.3027086855178602  9.3669142013056597  9.0136806142378720
 16.3411060000759356  6.9960000198597649  9.9006284407566003
 16.9732798279320427  8.3159100944335638  5.3350768825993740
 14.3179740397272202 10.0337578818108248 12.9975914306490594
  8.5748559603915258  2.8718914798389008  3.3895931348834631
  7.7932582297835040  1.4710836492197419  1.3178195388954634
  4.0076460366692670  0.7140143398196761  3.1500187979095022
  6.3564085921957227  6.2604625200878203  0.3529162836244448
 16.7163977117226494 10.2510456360784961 13.8598354056750637
 11.6714388505318301  4.8307731283411206 14.9444285384406594
 16.0039664657326597 11.7205535092370248 11.6859164565432021
 16.3616964452307840  9.0307881903784661 11.5254494674059735
 17.1541351955506016 13.9390384460998913  8.8420830647682997
  4.6396317142395738  1.5429187962422994  0.0271304154005383
 22.3145841719393907 19.9412228348211507 12.5154305860294883
  6.1048001580407929  2.1863157971371932  3.3163177470704235
  6.8966083679242178  3.9275293563589586  1.4539433363328444
  3.1364647635669161  3.4729836393674360  4.7753091744497853
 21.7234949769693735 21.5043457841637853  1.7206119044823247
 23.2368539918044448 26.1371001542099393  2.3355517413142515
  1.2624855982051115  0.6352162484162320  5.4677021589326884
  2.8434486303413782  2.2253500205076504  7.2406737278414912
  1.0842041863298322  0.3947007558104298  8.0168259733998557
 14.6940146641111031  9.0968378850858151  9.4489670793374767
  1.8145306344172527  1.1041011533680558 12.2763807135148557
 10.2602255813809400  6.0971138520115797  6.5187628826095327
  8.4261847872687117  3.0023267086578658  6.2140265827604653
 13.7761008673971297  3.8686402670312368  0.6891961634832603
  7.6362189609293294  2.5384661488338423  8.6956070525421865
  7.0651242268353034  4.9024500579817163  7.5192634426276186
 14.0395257860871432  5.9639647258747628 14.6465660550535883
 12.0731758528179594  1.5293322083640648 14.6736177344077738
 13.7198943990930236  1.4082299713053401 12.0093175838580795
 13.5822373169030062  3.5568828621924982 13.6555458931933664
 15.8346350607204744  2.7362908479363597 11.0028270513285058
  4.9370530104568813  6.2625568752078138  8.1148980677521241
 17.2322725239975618  4.8957629242423506 11.5722547533558036
 16.1115272784403452  4.0043690359485211 13.6973173613560881
  5.6690751913567192  6.0013316421289371  5.5152925634195267
 13.9727265758356918  7.9562646002492565  0.6888403412160171
  4.7231380031641796  3.8929057309204378  6.8843774609234645
  4.7788645664315705  1.5854155287262859  5.5563207708425013
  1.9075688255239192  2.0908913824439370  9.7880315826547477
 14.3148728505969665  8.3959336052603817  4.9534098877856403
 18.1989742729566970  6.8044791294716651  1.3853693794040616
  9.4541265517602415  4.4217093833436536  8.3331900937857863
 11.1676970409757264  1.2403718833887885  3.2918372224076835
 12.2783109043475740  3.5791886461707514  2.8441869060956986
 11.2349716060664129 18.9744688813604903  3.3796745490663072
 15.8566383083816191 18.2454063204168584  2.6451590952888449
 14.2445960240112832 19.8720997583855414  4.0927288695725563
 13.3489421079017596 18.8625896604177115  1.8464188954716632
 17.1421422145823144 23.5627002335038753  4.3025083878438446
 15.8257608724050645 23.6035095921746993  1.8863781180541750
 18.6755419521559425 25.8040310838871569  1.6793093416407574
 15.1427306507118633 17.7249023456864627  0.0463373774281577
 13.7690716510061044 17.2460420861320536  3.9668728987301551
 18.6068077347416612 25.7539226247364255  4.2827953750940813
 21.8165665621839722 26.7927614819130291  4.3923305421968166
  9.2095810506666957 14.3656298555498356  3.7665963832543472
 14.6194998577457085 22.6284092026084522  4.1240351583734718
 11.3189600641386967 16.1490568281810738  3.9406896131690230
 20.6455513398025801 23.8823392325866166  1.4196687250585838
 20.8623807191441912 26.1001454388602916  0.1466479348690821
 12.5688769430959564 11.9657911140675406 12.9884062488020113
 12.9145780772975751 10.3191100332976085 10.7720963917426520
  9.2787569580133482  8.8973182300198133 13.7155624156874048
 15.2673187505498777 24.1841862761102604  8.2477020575621207
 10.4917462472115286 12.3780115423703432 14.5657386667460003
 11.6914303707657403  9.5188719843460508 12.9795644206174945
  8.0150478363125011 13.1869214563011479 14.6311769593314693
  9.8286026657736905 14.6089646962106592  6.7695059411060594
 15.1581025122108954 25.2087286742437300  3.9055850326981671
 15.3255856447917260 21.5267928643090052  8.4807603597330310
 12.2923640408341033 14.3506664195204845 14.2033840458341487
 10.1313825527876062 15.5260656796672478 14.9889333326184886
 11.6091207088204982 16.6469067321694126 13.0040778346972505
 10.7582968090211555 13.7411200162661515 12.1660036205901640
 11.7435553484818271 18.4932585678736707 11.1219963256924679
 16.8524507539732369 19.3211052804472203  7.7172899497719598
 11.7692874333844824 19.5724111219564705  8.5872255272879876
 13.7873761986441163 20.3207396416808592 10.2351202829598620
 14.9311399279932484 15.3619076038426954  9.4615976161605246
 13.4667127614092674 17.2431017081947360  8.2135804045342979
 12.5899834446842860 16.0970874866900218 10.5562820289342785
 12.7657928488104329 13.8175668949770465  7.8470954955759851
 10.3157040202403767 14.2507821648247859  9.4309912178792512
 12.4509876462197440 16.7535641416558505 15.4894274284429088
 13.0971430577297472 15.5775562443961579  5.8925721821897561
 13.1063936248551460 19.5448187544999072 14.5681406158616742
 14.7328982737067289 19.1629695992350655 12.5412020284649799
 14.7061750870592185 17.7090446197403075 10.4637827995060579
 15.1717823990285439 14.2835337306728398  7.0071859281776865
 11.8745446742059375 17.8910042736642723  5.8050609817639565
 18.0028210679639606 19.0013670383029094 12.2720545103772043
 16.3250542808247339 19.7561543033895468 10.4651593458597034
 10.8059055778779527 16.6616369269771170  8.1364621404715276
 13.0346627307597487 21.1239054207295744  6.3096961132483580
  9.8805592906785407 11.9060086932852691 10.6113379576918003
 14.7945629434754284  4.2559687770848376  3.2004376098406664
 19.4855457465930897 23.2343086805907433 12.7715058569868418
 15.5632434106155486 25.4805709289575404 15.1246077446278093
  9.6443643933689920 11.6075446654449035  8.0701165085085105
  8.8466357361659025  9.6169575234786180  9.6696143783367443
 11.0349489147487514 11.4233490638206714  5.7543949816711253
 17.1546077603350255 25.1078831644878626 12.8864490513182837
 15.8217618082749443 23.2016195846975499 14.2684741746217885
  9.0706741527495982  9.7025209554561584  6.3565672477658008
  9.5183085531720817  7.0778531385342767  8.9189965313952158
 11.7099871141300422  8.4102819531143780  5.3033338736151778
 19.3821304961991849 26.9436356098428256 13.7419820944582600
 18.8653715522317924 24.4774204303512093 15.1037309007348473
 15.5417544743679645 20.6666303857174469 14.5511365975311513
 18.0891351005965433 21.7832758501571995 14.6618647087917608
  6.8252697110209368  7.2563550239500598 10.0921112572665486
  6.9698236551603232  8.3739080897909197  7.3879722725284385
  7.4097763148508964 11.8886620039316195  9.6199240163262605
 16.8623018433670033 21.4952742329694964 12.3945716876786101
 21.4655178093276149 25.2393476118802447 11.3279644174380500
 12.2010202713610312  8.3919971299737330  2.6172586090958472
 10.7109288591878844  3.2756202647239050  4.9038960522294515
  9.9141000593676605 16.4899182340900197 11.0115617999467563
 13.1268122912876279 10.6206499269208408  3.9607354096944034
 13.6213441311465449 21.5438766039413103 12.7880335371682765
  8.5247448411876032 12.2847338089528204  5.7857578309488717
 10.0539590512065473  8.0098570532526043 11.3377563571547153
  4.9369422159862779  7.5464016678401551 14.1461042583941978
 11.1896117466459355  7.0067922007082082 13.4525801406306815
  7.5141404376732988 10.8345960972512447 13.3434148220181079
 17.3258490023148966 25.2723127122726225  6.4840343472326785
  6.9504553665604654  8.4081804063969621 12.4543858573547901
 19.3522887031426087 23.7193600916654361  5.8424564444932656
 17.0421915691616022 23.1051017877581266  9.9348739642649289
 15.9898997817311646 21.1235362859630804  6.0077114426965075
 17.9165961752943375 21.8016905814515098  7.9175708449723050
 18.5860442296059638 20.9619985173248011 10.3904092079274246
 20.9529643216259984 26.3444396699723988  8.7435072448807087
  7.0248041764354925  8.7484054187363149 15.0986236538761585
 11.3995870523910074  8.9050547139833576  9.2045441932988403
 13.4005769066778235 13.0286246536205823  5.3558038412142199
 12.9260116412020825 11.1696957682137405  8.2860869787073135
 12.3977998406923327 12.9650345203190511 10.2828547065210714
 14.8316148472963061 12.7705479964392676  9.2285069451121693
 19.6744574976002724 23.2735733465230545  9.7279284659717877
 23.0951712177979473 26.6225839445831589  7.0429319928360297
 21.6473046019063560 24.3567186439713197  7.1237500872234962
  8.2803173280426137  7.3619598601408853  5.3579160415031382
 14.4760258116027956 24.9896312563010810 12.6470008644390859
 14.5548256723797405 23.0565508326868205 10.5945462452817800
 23.2772158634258766 24.4721984134222694  4.3563408949790343
 22.9040018519001300  6.3755030119628175  4.6705596204750730
 21.6676071437334308 22.6343353670240468  5.1074617293136315
 33.5416578807481969  7.4012530581140874  9.5256369203537563
 31.4534151188116731 10.1911963842252646  8.7466316035681295
 30.8492945645294157  7.8237425054244207  9.5589860351146978
 35.8993157857010843  9.1185407903432854  3.5120494515681444
 37.9789729350735783 12.6501634255645339  2.1441811051325459
 35.4504400748956030 13.3259378842225704  1.6915565032731401
 36.1258353145616553 12.0206432123287659  3.8961792505565569
 36.0320942758254148  8.2871655730491867  0.8965356846640777
 33.7243791615220090  8.9225561260181703  2.0058160396431393
 34.7880986126580183 10.4260206246326685  0.1134040238302833
 33.8466681512751180 10.5866410686002705  4.1118961847561630
 32.5790444422182333 13.1699780283690142  1.8242709850191083
 33.6417345104175922  7.9086168736497271  4.4051232498926316
 31.6704935567731241  6.7400775763481660 13.8495791143796936
 31.7528127429448830  3.2552932312219358 11.6713953503115686
 31.9782273438890208  5.8820610268511038 10.9499967948390395
 29.0020635210204603  7.6576631446676462  6.9860492815062933
 31.4680189184755896  7.4041854939810996  5.8356923608257905
 28.1241761338375653  2.5915241324056755 13.2126928391463316
 32.8207127544249602 12.2829375837464045  9.6804323191209143
 34.6372304556901085 12.8332057446537675 14.7930372224833100
 34.0864271528836724 13.0246348219979104 12.0472157137836735
 34.2245998043332094 10.6276505954980003 10.8530429560401522
 33.6387755699891855  8.0859069141867383 15.1432626065801283
 32.2833052840735562  8.5249736496196444 11.6534167226038594
 30.7719321610675109  9.5312303577699442 13.6951072644942098
 30.1331896497166802  9.9643974325941844 11.0454311082191232
 29.5409164859817288  7.6179550107510590 12.3557705165398843
 35.6499180597969669 10.4244158479757605  6.0099918802545584
 36.5582756154146793 11.0965612404500842  8.3076180567706555
 36.2135261181684598 13.0947799671395977  9.8648040909375805
 35.6169769705285262  8.6886803081439723  8.1636758595752674
 33.8570408442578454 10.6560505349380694  7.8675888998974637
 31.8434336571331933 12.3337103593250816  7.2338185063110911
 34.3176113067840305 12.6993349719550697  5.7218032649823938
 34.1627394939871820  6.3611572120958044 13.1873487875966955
 28.9212832639108548  3.6734743183204763 15.3907740353970564
 37.0242008117807444 11.8148283837492105 14.9530507018415957
 27.0645291349608570  2.3655287959984772  8.6229293675521532
 33.1645998482768789  5.5661874546094579  0.0207446748185320
 31.4233248841675703  3.5575857365359607  0.6565577659353626
 33.4444256620117031  4.2615920648457646  2.3224598237479417
 32.0104097070166418  2.8353211014144883  4.0079459208682158
 32.6685679393246815  5.4193947518065357  4.5892930423678102
 29.7637314957725110  5.1763028608523465  1.8871180952576048
 29.3808025593744411  6.0112862693882700  5.0289067968441099
 27.3948510175686195  1.4269876167643052  3.5927320034984418
 29.3783964241252669  2.5853491225488652  2.1083423082733610
 28.3567123152901033  3.7281456550536007  4.3260822004796253
 30.2972034302306170  0.8141017029962968  4.1808173698293087
 27.2660882032472998  6.0541062343373042  0.6918513752270351
 27.2587086478704101  5.9705277002684074  3.3133279466193097
 27.0013849684522427  3.6560477523015615  2.0481698052622530
 36.7421280686718248 27.0967866129317727 13.3791403841877656
 26.9409379529954300  5.3622391058939458  5.9080213410742450
 25.5301278024908491  3.0844977601275709  6.4935556328059203
 30.9897552966995349  0.8707828230290570 10.6592063294195665
 27.4003594255498442  5.0860702306833172  9.0517935009801516
 28.4028823888660007  1.0061166947399527 11.1101804586072834
 29.2826456722110855  6.5605150376376073 14.7342324989228555
 30.0656528679887494  5.0508991695292833 12.4911419662645304
 27.3569743620175743  5.1563210915819555 13.7935913529731025
 24.7606925873211772  1.1258274568996940 14.6487263967978514
 26.2396589927699431  3.2252363691878347 15.0021453371350564
 26.0545489341347007  1.2488796066149115 12.2275555589772633
 27.0397071629595089  3.3765912286174320 10.9926902362440035
 33.8764938124587331  6.6273282331701537  6.6924954741232341
 31.7512033877442228  3.1010509089993135  7.8369498331489220
 30.2545696584637902  4.2340470490112594  9.7612603331292966
 29.2736474403295297  0.9251969150427583  8.5549790223453233
 27.9014576456127443  1.2695719386805804  6.2825261331110118
 29.1869821782524497  3.3029444123561889  7.4192165713305780
 30.5643785150046625  5.5002032801245502  7.4220109797170926
 32.0966462152486542 11.2090134799180667 12.1840624914300708
 35.4204858018438244 10.6999797962535865 13.2223627475170282
 35.2562356809570971 25.2742615741860348 11.9130476872708257
 38.8617898815736353 24.7708787154953320  8.9837031210451386
 44.7500296213336100 23.7193760021686266  0.0718684726821921
 43.7970065091605889 26.2224089051501394  4.7482857995591861
 40.6676502495283287 21.2486491656547116  2.3658215760730088
 39.2829202416594967 25.9421329899546826  4.2764819750699941
 40.7824345518972322 23.7690214194959744  3.6188676541368880
 42.9199470196640505 21.9690111596057207  4.1231389669566285
 39.6833938231461971 22.8066764821526284  0.4775504517434958
 42.6380885504658167 23.2681355763915825  1.5997443673542755
 37.9857625327614201 21.4066970170432676  1.8743977131888072
 35.8128376843882279 20.7574680727344401  3.2884512375328101
 38.2968628858570668 23.4679530684522284  4.4709196436250727
 38.7182522939457456 24.6763822440575744  2.1380087637078806
 40.1776701753986814 17.7598869830141837 15.1188483503240008
 41.3588657874239516 19.7831650620007053 13.8273867214737916
 36.2789158658716460 15.1898010695566654 11.3361811048800458
 36.4780294046936291 22.4316655304765185  6.0127392905570698
 41.7906669407808380 23.6836557847107194  9.0652584911726706
 38.9078629368572706 17.6514660336379485 10.5132706447378474
 42.2843232788101417 22.7623307344394945  6.6206563238808664
 42.3410900447851901 24.5186546631360685 14.8392116275278685
 40.5226435036469113 22.4532808286301773 11.2989617359429939
 40.0926150302863249 23.6878117419579368 13.5417687925177113
 40.8738802972927573 26.1096369951383167 13.1816080168146836
 42.7603754625104457 21.1718544303120417 10.7397646900063002
 39.8799844132961354 25.3418540580156737 15.5187377462251153
 42.8825380838649863 21.9338438729862624 15.0117304644480285
 37.4469294161747399 24.1329081304084205 15.5343580583972152
 38.2851605428077093 23.7603842320975289 11.4864230820793072
 38.5397092765719762 21.7049094696722698 13.0311409807972982
 43.7695898793759994 24.7686765776510995  7.5498497376292164
 46.1411888234137848 26.3146870943880380  6.5600890862555117
 45.0933370712084525 25.8884432733228387  9.9120653713405940
 43.9733812370742712 22.3762787304462627  8.7708480328104610
 39.8537691273202412 26.0101117365963503  6.8859167143140825
 38.9553303796454173 15.0540588818194490 11.2381038893785306
 37.7677943214849137 15.8106867858249149 13.4316716720566856
 35.3367920210444808  8.4644537448753017 11.8390971859676508
 33.3066821723837165 15.0956044590644787  6.5112357474889553
 42.4444191802519555 19.3753001215127547  0.7014064635195938
 40.8220562559962090 16.5317690578042615  1.7892507026085540
 39.5075148456006602 20.1937604782267854  0.1225198248597588
 40.2408883315934105 17.7817463371435061  4.3557749742482974
 36.3859258686994309 19.3908324421430223  1.1435786324943262
 38.1102467162094669 19.2119989511161968  3.2159902411046755
 37.7188212670908527 16.9291237780311192  4.3389910248674362
 36.8620521395614702 14.5856929187819020  3.6195667139987018
 38.8780361329176074 15.6485650355388906  0.2330572206560244
 34.6532031604684008 17.3608890235915432  1.4178281327157909
 33.9488727507132992 15.0999417698243139  0.2587938084188297
 34.0637892143755181 14.6730896267534696  3.9035652559085490
 31.9552957481552689 13.6317496792532804  4.6599564535163536
 37.6344039916401840 13.2094892412019984 12.6541538070063364
 36.8098352789198913 10.6427562776308466 10.9370538203914585
 34.7488570867711672 17.5051708009712073  7.4999856773348164
 33.9547426456263324 14.7604640503687676  9.9933266558179312
 36.5127553149981310 14.6128375136492217 15.3759667847090835
 38.9409164439429532 19.3776748574191195  8.4188637046744503
 36.8115645745317792 17.2585630883052019 15.3991701986389362
 38.3686920454870730 20.1410679984409491 10.9190632528282876
 36.4349467130780624 20.0762955530396603 12.7331170704468608
 38.8032080604885934 19.1253517783169329 13.4104264804871232
 31.6868728483181989 13.7393906745063497 11.2006505918085324
 34.6669283655493601 18.6827951111581712 14.7927000825634796
 39.7297811455946857 15.8111047492484698  8.8161004128314016
 41.7087860513565261 20.2907772179512200  5.8043816597374702
 40.8391263821372874 19.4891348097924144 10.1280613100357542
 36.1019412419286212 15.4577138135076417  8.6600016919670431
 36.0540149564658350 15.6922158084922359  6.0031364115456523
 37.3323738271954468 17.5057840810417922  7.5085436172716840
 38.5072097844860153 14.7913384694051526  5.7179136125202596
 38.5013728357463592 19.1231934861328412  5.8015425708829973
 36.6958790404082578 20.1815993576661725  7.4533119989324854
 35.7906460699209177 21.8753491002518317 10.9454837731736898
 25.7638259571147117  0.1692417584476970  5.1812504025325792
 23.1162026347125504  3.2323811150757189 10.9659150768336140
 17.6065151554178883  0.4315031256430252  9.1494364180972418
 19.6625122251796896  1.7099987625353932  8.2998246312833412
 22.9175105145949267  2.7010437137461252  8.3077327628901987
 23.3415715988496011  1.1082257576994892  5.6237401241951703
 18.0867062590140328  1.3374705418756432  6.0466079109443172
 19.1407618238570372  3.7517565106178612  6.5564837713077804
 18.3007804631455748  2.8841929358381071 10.1497621792998753
 25.2347402472962123  4.3959509104190539  4.2143669556668275
 21.0170346887652393  2.4469582717743421  3.3656173763696642
 25.0204169806582399  5.3949647519710950  1.7298366084013821
 23.9517997652648766  3.1781715091818343  0.6109268791296067
 22.7395133382851213  5.5427009356204087  0.4381712961722083
 22.8011515116902928  4.2503062575558168  2.7464598830934941
 20.5209936338804155  4.8675859012573852  4.2245993988171167
 43.4868399183126826 23.4981258085333131 11.3971914060112898
 22.7550959822241161  3.5517806292661342  5.5799646768254298
 20.8313165489217376  1.7338481452451855  6.2147109077673131
 21.4259720261081803  5.5022130076668745  6.7862343040850739
 22.6404467112969598  5.2395462465310851  9.3462357413410366
 25.0194675681037637  3.9560884436130510  9.3079945603240279
 24.2513202456254326  5.3722123741132268  6.5791210713859440
 18.7140080171857157  3.1568918100321688 13.6134781173402768
 18.6345447525929835  0.1579549093150265 14.2489736706099706
 16.8127803092089358  1.9027902888617521 15.0780929667717203
 19.7332749742541296  0.7861408197947002 10.8351581805425194
 37.6602291603041053 26.2035507464258401 10.8477691564073879
 20.4701526161764384  1.8958361972983908 15.1333965074323036
 21.3229464007070000  2.8015682107133499 12.7548053334915288
 23.8497380027148900  3.3486191692991909 13.5838649083520178
 20.7423378491186128  4.5423294130549960 14.5916451981359074
 23.4734984129777082  1.0538265493744332 12.3686410111825538
 20.4811025053347855  6.8816419644261302  0.1080172277472287
 20.5019150365250127  4.5706693076967460  1.5662915175810164
 17.7619105181904828  0.0254002174259761  1.0468546363229094
 26.8172630445446281  7.7500869959440823 14.3540210774274808
 20.6385086448997157 21.9111376015755468  7.4164800475636961
 26.0152400157072954 24.6238874986016327  9.8810266914051663
 24.5682862189961106 22.9779442454211562  8.5664611309553074
 26.7345301632349788 22.8192745848047416  7.0565901441630645
 25.0917868496486847 24.8391880528794005  6.6725610044506496
 24.2453590001442905 22.4987618665560696  5.9557464524103949
 23.3332798126833119 25.1804606676633078  9.1096002752459952
 28.0675892866651466 27.0574619131210596  1.2606604211450672
 17.3566964518348748  0.9862863221717262  3.5086818745256023
 29.1106420653863012 26.4586099025962511  5.1124569637458404
 29.4178684892011297 24.7008894379689785  2.9833724940487567
 25.5415998720897832 26.8548368171552170  1.6045601822058571
 27.1460270126204399 25.7463953952654983  3.4778215693928418
 24.4530777211477535 26.7267572157906983  4.8489745808139721
 23.7098842512449295 21.9437438874214337  3.4761855147325504
 28.2647281427347075 23.9705220095306863  5.2536149256153557
 27.3146745942198450 26.7981190235522675  9.7163358723938202
 20.7586450878316704 22.2758966253115993 14.9753385136830204
 19.8906280746341508 20.5193483134190231 13.2641056971265154
 21.8204320808723367 22.2840793157326189 11.4852425578826356
 22.4689124134817604 24.3215832920016553 13.5081177300749680
 23.6840454369073292 21.9947516286480322 13.4866660126225284
 24.2700404323935146 21.1544619663811773 11.0454347464805913
 23.9121310217273226 24.0257120558324111 11.2518790088329634
 25.0314677842736515 24.2133047139298476 14.1600151960025364
 23.7197556295273841 26.3740864697486934 12.5489256368822684
 23.7948551524869067 26.6448761279567137 15.2886740847755433
 26.6054177591239345 26.2050805415094388 14.8137507259981138
 26.3879072261413192 25.7817370320350570 12.2290297122089644
 27.6382173300396516 23.9981781846833329 13.6952166629274235
 28.5129267186812960 24.8320351434584055 11.0929391830127404
 29.2236829260414517 26.5452739058847627 14.5819503125949641
 28.8101134217975776  9.4970157033176630  8.8649318435735864
  1.4072575571194978  0.4607085647257014  2.8738945031559071
 35.7448272258761079 24.3721421055129746  1.9000287681823729
 32.4201230451507314 19.9320981726235686 15.3838401905564996
 33.8966812091711844 23.5512465201348569 10.3687880485869002
 30.4052043601004414 24.7311099183073999  0.4133836383534106
 34.8218485074987996 24.3192320482555573 15.0412995651853656
 31.2246145969939910 21.5481289136901211  1.3478606780687139
 31.8551044010778597 23.7741003365999610  2.4601636548864563
 31.3581586900188256 26.3306455733446789  2.4082454677544907
 33.8467320188140803 25.6248633297908519  3.2354140669601734
 34.3093357081595514 22.9450412920920215  3.5660649859749256
 33.9291994972582458 21.2810392980243606  1.4779225800036384
 31.3342763103463469 20.8817535178428670 11.7363158073342753
 33.1425659662593759 20.6379150170346044  3.8977916467923537
 30.7786740891905026 23.7562832931078560 10.6923634053968755
 35.9389706626061667 24.6882742201739482  4.5731642013991483
 36.1983203296799374 26.4344252667807105  0.2867614918590276
 29.1850261042256243 22.3931196604785825 12.1892747880609793
 30.6155933296532794 20.3373218198433214  8.2591886388236144
 28.7942499265486482 21.4994136119832575  6.1478495745441135
 30.3348074189386843 24.6070506071013959 13.2373339095688323
 29.2729437198350837 23.5899398477192292  7.7522298927013642
 29.0197381392293536 20.4834482560613438 10.3346112956351082
 31.8996505516558635 22.5198843707155412  8.8085991343898744
 34.5707902094342074 20.6827275937813617  6.0745479527933854
 36.4377607803608612 24.1019313222341331  9.6200172315836419
 31.6112921533801376 25.4086670621201023  8.6164788687118339
 32.0579649280128649 21.4867757801387214  6.3073970293780386
 35.1733673952186905 22.2043664828311158  8.3131943392913783
 37.5052276231162196 24.7588926013200634  6.6706148975979023
 32.3183929817185032 18.7819464985048015 10.5706319396717738
 31.7819307575772356 16.2449991098787656 10.6549549702523194
 32.4197026664828698 18.6170779865930882 13.1821728967030154
 33.2253362538349677 20.1466799589922374  8.3083547650019618
 31.2224438509373030 18.0710731149328758  3.6528173801007231
 32.3596863029489796 16.0759186100165863  2.2060081593047403
 32.7150063738349957 25.8329231975500164 11.0828451904467435
 33.8690349971968985 20.4326985773137046 11.9643458726108491
 27.2400093794025295 19.5132113036385206  5.4050288173232452
 35.0407014885451318 22.1570159968950513 13.5568998193905887
 29.9530838305282643 18.1054454383046348  9.6036812234774516
 28.3046824619753323 19.4402471700247936  7.8689497504126518
 29.9036208172266562 19.1283699149544653  5.6940175011091707
 30.9997171963690299 16.6477268887736791  5.9718006910189700
 32.5110813853211411 17.2666261056614339 15.4660054349802216
 32.5641941746369170 18.8780688204645450  5.8899298721729636
 37.6293143247873871 26.9556656768141814  8.0282974121431305
 32.8247359866234234 22.5463154827662642 15.0854651214101416
 33.1950926106974009 23.9265854955638559 12.8959538079156459
 31.8521119036648237 26.3936726335889382 14.5734165909643956
 31.5849231117275799 14.6948215716443702  8.5886891745237328
 29.2626185459169186 19.7932364052101128 12.9521004318323758
 32.1569422441206285 17.4035842712409945  8.3121509603908272
 20.8421956471619296 20.2685231419027296 13.0355416019879922
 20.6716844729814717 21.0224551673746447  7.0126094743674834
 21.7373774155958550 20.5967855919044567  1.3605801644686384
 23.0067783702119328 21.6981117691343250  2.8185263319929277
 17.1295217181292472 19.0400120694420032  8.6111306735848920
 16.2831340048798374  8.6609348675185540 14.5682272464499594
 24.3517838857487696 20.2990255917569193 10.5856359095286479
 18.7954316375569235 19.2096797719079895 12.8266471742315034
 22.8077817991682892 19.3765459889681892 13.1406944849233192
 15.5327389916409473 11.9226681174782794 10.8431198624531078
 29.6498741142091760  5.9981408957799243  1.3723327247833328
 17.6807554963114413 10.3802081336291643 13.8101341684752406
 17.7825327693228381 14.5706972457578594  8.4469838912625566
 18.1942229920363232  9.4067129981002218  9.3995816443676805
 27.2264052046915985  8.3562044629979848 13.7068191736125637
 16.0069198776775998  8.4899058084846395  5.1585966238966998
 19.0575815183927375  6.8885368708829313  0.8883612019328733
 21.0189118209763564  7.6572859173275081  0.3708498110250129
 31.6357374624461833 17.3041982303837969  3.1582585998833523
 28.7238142183846072  8.8578082479977436  8.1104091366298956
 28.2610308682255429  7.8523939071252187  6.3763853420378496
 26.8959642905419933 18.6030957931467675  5.4080140269365726
 30.8284288639639890 10.2802270018607445 14.3171600992727317
 29.1851008533925196  7.3245720384396149 11.4896920762693995
 34.0983655561230847 13.0199149549640527 13.0336381023901726
 31.7026896849411735 12.6790523321926418  4.6766596551755253
 22.0883841322833803  5.4567130421529031  8.5567336211662752
 31.7034953126959920 12.7891411413764349  1.6535739394827489
 13.4471441047506843 10.7907245329355792  3.0558698416964765
 31.3279951255157201 14.1563863290011831 12.0097514373300154
 28.3544863691746478 19.4399480499960369 13.0106457887341485
  9.8612893065189233 10.2858856818848405  3.5140461016098068
 24.3691738627317029  4.0155150777337685  3.9425670667158959
 30.9480175237567430 20.8084902277311343  1.9292961726213089
 22.0835768394498331  6.6576805894613349  4.2206046944789577
 15.8631694384942179 18.0220680569764973  1.6746356263545892
 31.5759687880484812 22.8579702724747875  2.1628095749721323
 31.6230789511406520 13.2250934905559578  7.6298579950155005
 27.5109074983819575  5.4034357406487192  8.1351812834727149
 27.5171245326137921 23.1111103725459053 14.0906148064176886
 14.6004387017864037  3.5678634458135599 13.4719306743167753
 17.0252877794349473  5.8241995453534257 11.3138030477251803
 16.4817659288524183  4.4540049972554501 12.8665854846009200
 14.0224261156006644  9.2395795949103405  4.4893715477716603
 15.7033843702357707 17.9611402452477655 14.9357581352338507
